1 1575 7
2 1358 7
3 1353 7
4 1312 7
5 1220 7
46 1216 7
86 1183 7
137 1182 7
717 1169 7



1 1488 7
2 1309 7
3 1304 7
4 1275 7
5 1225 7
11 1217 7
23 1204 7
33 1186 7
439 1185 7
563 1181 7
724 1179 7



1 1358 7
2 1346 7
3 1315 7
5 1270 7
9 1263 7
14 1229 7
15 1218 7
62 1203 7
275 1200 7
321 1189 7
328 1188 7
348 1187 7
496 1183 7
598 1170 7



1 1489 7
2 1300 7
3 1293 7
4 1274 7
5 1269 7
9 1246 7
11 1231 7
17 1227 7
37 1218 7
39 1209 7
89 1169 7
549 1161 7



1 1506 7
2 1318 7
3 1308 7
4 1301 7
5 1259 7
7 1256 7
9 1213 7
41 1207 7
51 1197 7
226 1172 7
805 1151 7



